1600 3120
1 2 2
1 41 2
2 3 1
2 42 3
3 4 1
3 43 4
4 5 3
4 44 2
5 6 4
5 45 3
6 7 3
6 46 5
7 8 5
7 47 2
8 9 5
8 48 4
9 10 1
9 49 3
10 11 5
10 50 5
11 12 5
11 51 1
12 13 3
12 52 3
13 14 2
13 53 4
14 15 1
14 54 2
15 16 4
15 55 4
16 17 1
16 56 2
17 18 5
17 57 4
18 19 5
18 58 2
19 20 1
19 59 5
20 21 3
20 60 3
21 22 2
21 61 3
22 23 4
22 62 4
23 24 3
23 63 1
24 25 1
24 64 4
25 26 4
25 65 1
26 27 1
26 66 3
27 28 3
27 67 1
28 29 5
28 68 1
29 30 5
29 69 5
30 31 5
30 70 5
31 32 4
31 71 1
32 33 3
32 72 3
33 34 3
33 73 5
34 35 1
34 74 2
35 36 1
35 75 2
36 37 4
36 76 1
37 38 3
37 77 2
38 39 5
38 78 4
39 40 5
39 79 4
40 80 1
41 42 1
41 81 1
42 43 3
42 82 2
43 44 2
43 83 5
44 45 5
44 84 3
45 46 3
45 85 2
46 47 1
46 86 3
47 48 2
47 87 1
48 49 3
48 88 4
49 50 5
49 89 1
50 51 1
50 90 1
51 52 5
51 91 5
52 53 1
52 92 2
53 54 2
53 93 1
54 55 4
54 94 3
55 56 4
55 95 2
56 57 3
56 96 4
57 58 1
57 97 1
58 59 1
58 98 3
59 60 5
59 99 5
60 61 1
60 100 3
61 62 2
61 101 5
62 63 5
62 102 2
63 64 3
63 103 1
64 65 2
64 104 5
65 66 4
65 105 3
66 67 3
66 106 3
67 68 2
67 107 3
68 69 5
68 108 4
69 70 1
69 109 1
70 71 4
70 110 2
71 72 5
71 111 1
72 73 5
72 112 4
73 74 3
73 113 3
74 75 2
74 114 5
75 76 2
75 115 1
76 77 1
76 116 5
77 78 2
77 117 5
78 79 4
78 118 3
79 80 5
79 119 3
80 120 1
81 82 1
81 121 3
82 83 3
82 122 2
83 84 4
83 123 4
84 85 1
84 124 4
85 86 2
85 125 5
86 87 5
86 126 1
87 88 5
87 127 1
88 89 5
88 128 1
89 90 2
89 129 5
90 91 4
90 130 5
91 92 5
91 131 3
92 93 1
92 132 1
93 94 3
93 133 4
94 95 5
94 134 3
95 96 2
95 135 4
96 97 2
96 136 4
97 98 2
97 137 2
98 99 2
98 138 3
99 100 4
99 139 4
100 101 1
100 140 5
101 102 5
101 141 1
102 103 2
102 142 4
103 104 1
103 143 3
104 105 2
104 144 3
105 106 1
105 145 1
106 107 4
106 146 4
107 108 5
107 147 4
108 109 2
108 148 1
109 110 5
109 149 5
110 111 1
110 150 5
111 112 2
111 151 2
112 113 3
112 152 5
113 114 3
113 153 2
114 115 4
114 154 1
115 116 5
115 155 5
116 117 5
116 156 2
117 118 4
117 157 1
118 119 1
118 158 1
119 120 2
119 159 5
120 160 1
121 122 1
121 161 4
122 123 1
122 162 1
123 124 1
123 163 1
124 125 2
124 164 2
125 126 4
125 165 3
126 127 4
126 166 2
127 128 1
127 167 5
128 129 2
128 168 3
129 130 2
129 169 3
130 131 2
130 170 4
131 132 1
131 171 2
132 133 2
132 172 5
133 134 4
133 173 5
134 135 3
134 174 2
135 136 2
135 175 2
136 137 2
136 176 3
137 138 1
137 177 1
138 139 3
138 178 1
139 140 4
139 179 4
140 141 2
140 180 5
141 142 4
141 181 2
142 143 5
142 182 1
143 144 1
143 183 2
144 145 2
144 184 3
145 146 2
145 185 2
146 147 3
146 186 4
147 148 1
147 187 4
148 149 4
148 188 4
149 150 4
149 189 1
150 151 3
150 190 2
151 152 4
151 191 4
152 153 3
152 192 2
153 154 1
153 193 2
154 155 1
154 194 4
155 156 5
155 195 5
156 157 5
156 196 3
157 158 4
157 197 1
158 159 2
158 198 2
159 160 1
159 199 4
160 200 2
161 162 5
161 201 2
162 163 5
162 202 2
163 164 5
163 203 1
164 165 2
164 204 3
165 166 4
165 205 3
166 167 2
166 206 1
167 168 2
167 207 5
168 169 4
168 208 1
169 170 2
169 209 5
170 171 1
170 210 1
171 172 1
171 211 3
172 173 4
172 212 2
173 174 2
173 213 5
174 175 1
174 214 5
175 176 2
175 215 1
176 177 2
176 216 4
177 178 2
177 217 5
178 179 5
178 218 1
179 180 2
179 219 5
180 181 2
180 220 2
181 182 5
181 221 4
182 183 4
182 222 5
183 184 4
183 223 4
184 185 4
184 224 1
185 186 2
185 225 2
186 187 2
186 226 4
187 188 5
187 227 4
188 189 2
188 228 2
189 190 2
189 229 2
190 191 1
190 230 5
191 192 1
191 231 1
192 193 2
192 232 1
193 194 3
193 233 4
194 195 5
194 234 5
195 196 4
195 235 2
196 197 4
196 236 5
197 198 3
197 237 5
198 199 4
198 238 4
199 200 3
199 239 5
200 240 1
201 202 3
201 241 2
202 203 4
202 242 4
203 204 3
203 243 3
204 205 4
204 244 2
205 206 1
205 245 5
206 207 3
206 246 4
207 208 1
207 247 4
208 209 2
208 248 5
209 210 1
209 249 5
210 211 3
210 250 1
211 212 1
211 251 5
212 213 3
212 252 4
213 214 1
213 253 2
214 215 4
214 254 3
215 216 4
215 255 1
216 217 2
216 256 2
217 218 4
217 257 3
218 219 5
218 258 3
219 220 1
219 259 3
220 221 2
220 260 4
221 222 1
221 261 4
222 223 2
222 262 5
223 224 5
223 263 2
224 225 3
224 264 5
225 226 2
225 265 4
226 227 5
226 266 2
227 228 1
227 267 5
228 229 3
228 268 4
229 230 2
229 269 4
230 231 1
230 270 3
231 232 5
231 271 3
232 233 3
232 272 1
233 234 1
233 273 3
234 235 3
234 274 2
235 236 4
235 275 1
236 237 1
236 276 2
237 238 5
237 277 4
238 239 4
238 278 2
239 240 4
239 279 2
240 280 5
241 242 3
241 281 4
242 243 1
242 282 3
243 244 4
243 283 4
244 245 2
244 284 4
245 246 5
245 285 5
246 247 3
246 286 1
247 248 4
247 287 1
248 249 5
248 288 1
249 250 4
249 289 4
250 251 3
250 290 1
251 252 3
251 291 1
252 253 1
252 292 2
253 254 1
253 293 4
254 255 4
254 294 4
255 256 5
255 295 3
256 257 5
256 296 4
257 258 1
257 297 1
258 259 4
258 298 5
259 260 3
259 299 1
260 261 5
260 300 5
261 262 4
261 301 1
262 263 5
262 302 3
263 264 5
263 303 4
264 265 2
264 304 3
265 266 1
265 305 2
266 267 2
266 306 2
267 268 2
267 307 4
268 269 1
268 308 4
269 270 1
269 309 5
270 271 5
270 310 3
271 272 2
271 311 1
272 273 1
272 312 3
273 274 5
273 313 1
274 275 1
274 314 5
275 276 2
275 315 1
276 277 3
276 316 4
277 278 2
277 317 4
278 279 1
278 318 2
279 280 2
279 319 2
280 320 2
281 282 1
281 321 3
282 283 5
282 322 1
283 284 4
283 323 2
284 285 4
284 324 3
285 286 2
285 325 4
286 287 1
286 326 3
287 288 4
287 327 4
288 289 1
288 328 1
289 290 3
289 329 5
290 291 4
290 330 4
291 292 4
291 331 2
292 293 4
292 332 5
293 294 3
293 333 3
294 295 4
294 334 5
295 296 5
295 335 4
296 297 1
296 336 4
297 298 2
297 337 2
298 299 5
298 338 3
299 300 1
299 339 2
300 301 5
300 340 2
301 302 1
301 341 2
302 303 2
302 342 3
303 304 3
303 343 2
304 305 4
304 344 3
305 306 4
305 345 3
306 307 2
306 346 5
307 308 1
307 347 5
308 309 2
308 348 4
309 310 2
309 349 2
310 311 5
310 350 1
311 312 4
311 351 4
312 313 4
312 352 5
313 314 2
313 353 4
314 315 1
314 354 1
315 316 5
315 355 5
316 317 2
316 356 2
317 318 1
317 357 4
318 319 1
318 358 3
319 320 1
319 359 3
320 360 5
321 322 2
321 361 4
322 323 5
322 362 5
323 324 2
323 363 5
324 325 4
324 364 2
325 326 2
325 365 5
326 327 2
326 366 4
327 328 4
327 367 5
328 329 1
328 368 4
329 330 3
329 369 5
330 331 2
330 370 2
331 332 5
331 371 1
332 333 1
332 372 4
333 334 1
333 373 1
334 335 4
334 374 1
335 336 5
335 375 1
336 337 5
336 376 1
337 338 2
337 377 3
338 339 1
338 378 1
339 340 5
339 379 5
340 341 1
340 380 5
341 342 1
341 381 3
342 343 5
342 382 4
343 344 3
343 383 4
344 345 1
344 384 5
345 346 2
345 385 2
346 347 3
346 386 4
347 348 1
347 387 3
348 349 1
348 388 3
349 350 2
349 389 3
350 351 3
350 390 2
351 352 2
351 391 3
352 353 3
352 392 2
353 354 5
353 393 2
354 355 5
354 394 5
355 356 2
355 395 5
356 357 1
356 396 1
357 358 1
357 397 3
358 359 5
358 398 4
359 360 3
359 399 1
360 400 3
361 362 5
361 401 4
362 363 3
362 402 4
363 364 4
363 403 2
364 365 2
364 404 1
365 366 2
365 405 3
366 367 4
366 406 4
367 368 5
367 407 5
368 369 3
368 408 4
369 370 5
369 409 1
370 371 2
370 410 3
371 372 3
371 411 4
372 373 2
372 412 2
373 374 3
373 413 1
374 375 1
374 414 3
375 376 5
375 415 2
376 377 5
376 416 3
377 378 5
377 417 2
378 379 2
378 418 5
379 380 1
379 419 5
380 381 4
380 420 1
381 382 5
381 421 3
382 383 1
382 422 2
383 384 1
383 423 5
384 385 1
384 424 5
385 386 3
385 425 2
386 387 4
386 426 4
387 388 1
387 427 1
388 389 5
388 428 2
389 390 1
389 429 5
390 391 5
390 430 1
391 392 4
391 431 2
392 393 5
392 432 4
393 394 1
393 433 5
394 395 4
394 434 3
395 396 3
395 435 5
396 397 4
396 436 4
397 398 5
397 437 2
398 399 5
398 438 4
399 400 2
399 439 3
400 440 5
401 402 5
401 441 3
402 403 1
402 442 2
403 404 2
403 443 2
404 405 1
404 444 1
405 406 1
405 445 2
406 407 2
406 446 1
407 408 5
407 447 3
408 409 2
408 448 2
409 410 2
409 449 5
410 411 5
410 450 2
411 412 2
411 451 1
412 413 1
412 452 3
413 414 1
413 453 1
414 415 4
414 454 2
415 416 3
415 455 2
416 417 4
416 456 1
417 418 3
417 457 4
418 419 3
418 458 5
419 420 2
419 459 2
420 421 5
420 460 4
421 422 1
421 461 3
422 423 3
422 462 2
423 424 3
423 463 3
424 425 1
424 464 1
425 426 4
425 465 3
426 427 5
426 466 4
427 428 2
427 467 1
428 429 3
428 468 2
429 430 1
429 469 4
430 431 5
430 470 1
431 432 5
431 471 5
432 433 1
432 472 1
433 434 1
433 473 2
434 435 5
434 474 3
435 436 1
435 475 2
436 437 4
436 476 3
437 438 4
437 477 2
438 439 5
438 478 3
439 440 5
439 479 3
440 480 3
441 442 1
441 481 2
442 443 4
442 482 3
443 444 1
443 483 1
444 445 2
444 484 1
445 446 5
445 485 5
446 447 5
446 486 2
447 448 5
447 487 5
448 449 1
448 488 2
449 450 3
449 489 1
450 451 5
450 490 5
451 452 2
451 491 5
452 453 1
452 492 3
453 454 5
453 493 1
454 455 5
454 494 4
455 456 4
455 495 2
456 457 2
456 496 5
457 458 1
457 497 1
458 459 5
458 498 2
459 460 2
459 499 1
460 461 1
460 500 4
461 462 5
461 501 1
462 463 4
462 502 2
463 464 3
463 503 2
464 465 5
464 504 5
465 466 4
465 505 5
466 467 2
466 506 4
467 468 2
467 507 3
468 469 2
468 508 4
469 470 3
469 509 4
470 471 3
470 510 2
471 472 5
471 511 3
472 473 3
472 512 3
473 474 3
473 513 5
474 475 5
474 514 2
475 476 5
475 515 2
476 477 4
476 516 4
477 478 4
477 517 3
478 479 5
478 518 5
479 480 3
479 519 1
480 520 3
481 482 4
481 521 4
482 483 5
482 522 5
483 484 1
483 523 5
484 485 1
484 524 3
485 486 3
485 525 2
486 487 4
486 526 4
487 488 2
487 527 2
488 489 1
488 528 2
489 490 3
489 529 2
490 491 5
490 530 1
491 492 1
491 531 3
492 493 2
492 532 3
493 494 2
493 533 1
494 495 1
494 534 3
495 496 4
495 535 5
496 497 4
496 536 5
497 498 4
497 537 1
498 499 1
498 538 1
499 500 1
499 539 3
500 501 5
500 540 5
501 502 2
501 541 3
502 503 3
502 542 3
503 504 4
503 543 4
504 505 1
504 544 5
505 506 2
505 545 3
506 507 4
506 546 4
507 508 5
507 547 1
508 509 2
508 548 3
509 510 1
509 549 2
510 511 1
510 550 4
511 512 3
511 551 2
512 513 1
512 552 1
513 514 5
513 553 4
514 515 1
514 554 3
515 516 4
515 555 3
516 517 5
516 556 1
517 518 5
517 557 5
518 519 1
518 558 3
519 520 5
519 559 4
520 560 5
521 522 4
521 561 3
522 523 5
522 562 2
523 524 4
523 563 2
524 525 3
524 564 4
525 526 4
525 565 2
526 527 1
526 566 4
527 528 2
527 567 3
528 529 1
528 568 4
529 530 2
529 569 3
530 531 5
530 570 4
531 532 3
531 571 4
532 533 4
532 572 5
533 534 1
533 573 1
534 535 5
534 574 2
535 536 1
535 575 3
536 537 1
536 576 4
537 538 3
537 577 3
538 539 2
538 578 2
539 540 4
539 579 2
540 541 2
540 580 1
541 542 2
541 581 1
542 543 1
542 582 1
543 544 1
543 583 4
544 545 1
544 584 2
545 546 2
545 585 1
546 547 2
546 586 5
547 548 4
547 587 4
548 549 1
548 588 2
549 550 3
549 589 3
550 551 4
550 590 5
551 552 1
551 591 5
552 553 5
552 592 2
553 554 1
553 593 5
554 555 2
554 594 3
555 556 3
555 595 4
556 557 2
556 596 2
557 558 2
557 597 1
558 559 2
558 598 3
559 560 5
559 599 4
560 600 2
561 562 2
561 601 1
562 563 4
562 602 2
563 564 1
563 603 4
564 565 4
564 604 5
565 566 5
565 605 4
566 567 5
566 606 1
567 568 2
567 607 5
568 569 4
568 608 2
569 570 4
569 609 1
570 571 4
570 610 1
571 572 4
571 611 5
572 573 4
572 612 1
573 574 5
573 613 2
574 575 4
574 614 2
575 576 5
575 615 3
576 577 5
576 616 5
577 578 4
577 617 5
578 579 4
578 618 3
579 580 2
579 619 3
580 581 3
580 620 3
581 582 4
581 621 1
582 583 1
582 622 5
583 584 3
583 623 4
584 585 2
584 624 5
585 586 5
585 625 1
586 587 1
586 626 3
587 588 4
587 627 3
588 589 4
588 628 3
589 590 2
589 629 5
590 591 2
590 630 4
591 592 4
591 631 2
592 593 1
592 632 5
593 594 5
593 633 5
594 595 4
594 634 1
595 596 4
595 635 3
596 597 3
596 636 3
597 598 5
597 637 3
598 599 4
598 638 5
599 600 5
599 639 2
600 640 5
601 602 5
601 641 2
602 603 3
602 642 1
603 604 2
603 643 1
604 605 5
604 644 2
605 606 4
605 645 2
606 607 2
606 646 5
607 608 4
607 647 2
608 609 1
608 648 5
609 610 1
609 649 3
610 611 1
610 650 3
611 612 1
611 651 3
612 613 1
612 652 3
613 614 3
613 653 5
614 615 3
614 654 5
615 616 5
615 655 3
616 617 3
616 656 4
617 618 5
617 657 3
618 619 5
618 658 2
619 620 3
619 659 3
620 621 2
620 660 3
621 622 4
621 661 5
622 623 5
622 662 4
623 624 3
623 663 4
624 625 5
624 664 2
625 626 4
625 665 5
626 627 3
626 666 3
627 628 5
627 667 3
628 629 3
628 668 4
629 630 2
629 669 1
630 631 2
630 670 1
631 632 5
631 671 1
632 633 1
632 672 4
633 634 5
633 673 2
634 635 3
634 674 5
635 636 1
635 675 2
636 637 5
636 676 1
637 638 4
637 677 4
638 639 3
638 678 3
639 640 3
639 679 4
640 680 1
641 642 2
641 681 2
642 643 4
642 682 3
643 644 5
643 683 2
644 645 5
644 684 1
645 646 4
645 685 4
646 647 4
646 686 1
647 648 4
647 687 2
648 649 2
648 688 1
649 650 2
649 689 1
650 651 3
650 690 1
651 652 1
651 691 3
652 653 4
652 692 5
653 654 3
653 693 1
654 655 3
654 694 3
655 656 5
655 695 3
656 657 2
656 696 5
657 658 5
657 697 3
658 659 3
658 698 2
659 660 4
659 699 4
660 661 3
660 700 2
661 662 4
661 701 3
662 663 2
662 702 3
663 664 1
663 703 1
664 665 1
664 704 3
665 666 4
665 705 3
666 667 3
666 706 4
667 668 2
667 707 1
668 669 2
668 708 3
669 670 2
669 709 4
670 671 3
670 710 4
671 672 1
671 711 2
672 673 4
672 712 1
673 674 5
673 713 2
674 675 4
674 714 5
675 676 3
675 715 5
676 677 4
676 716 4
677 678 4
677 717 2
678 679 1
678 718 2
679 680 5
679 719 4
680 720 1
681 682 3
681 721 4
682 683 5
682 722 5
683 684 1
683 723 4
684 685 2
684 724 1
685 686 5
685 725 3
686 687 1
686 726 1
687 688 3
687 727 1
688 689 3
688 728 3
689 690 5
689 729 1
690 691 3
690 730 2
691 692 5
691 731 3
692 693 1
692 732 5
693 694 3
693 733 4
694 695 5
694 734 1
695 696 2
695 735 4
696 697 3
696 736 2
697 698 2
697 737 4
698 699 1
698 738 2
699 700 2
699 739 4
700 701 2
700 740 5
701 702 4
701 741 5
702 703 4
702 742 3
703 704 5
703 743 3
704 705 4
704 744 1
705 706 3
705 745 2
706 707 1
706 746 1
707 708 3
707 747 3
708 709 1
708 748 2
709 710 5
709 749 2
710 711 1
710 750 4
711 712 4
711 751 4
712 713 3
712 752 4
713 714 5
713 753 5
714 715 1
714 754 4
715 716 1
715 755 1
716 717 5
716 756 1
717 718 4
717 757 3
718 719 4
718 758 4
719 720 2
719 759 4
720 760 2
721 722 3
721 761 5
722 723 5
722 762 3
723 724 5
723 763 3
724 725 5
724 764 3
725 726 5
725 765 5
726 727 4
726 766 5
727 728 5
727 767 4
728 729 1
728 768 2
729 730 1
729 769 5
730 731 4
730 770 5
731 732 2
731 771 4
732 733 1
732 772 3
733 734 1
733 773 5
734 735 4
734 774 2
735 736 2
735 775 1
736 737 3
736 776 4
737 738 1
737 777 1
738 739 2
738 778 2
739 740 5
739 779 4
740 741 4
740 780 1
741 742 3
741 781 3
742 743 2
742 782 2
743 744 3
743 783 2
744 745 3
744 784 1
745 746 3
745 785 5
746 747 2
746 786 2
747 748 3
747 787 4
748 749 4
748 788 3
749 750 2
749 789 2
750 751 5
750 790 2
751 752 2
751 791 3
752 753 5
752 792 4
753 754 1
753 793 4
754 755 3
754 794 2
755 756 5
755 795 3
756 757 4
756 796 4
757 758 3
757 797 3
758 759 1
758 798 2
759 760 1
759 799 2
760 800 5
761 762 4
761 801 3
762 763 2
762 802 1
763 764 2
763 803 4
764 765 2
764 804 3
765 766 4
765 805 5
766 767 5
766 806 5
767 768 2
767 807 3
768 769 4
768 808 5
769 770 2
769 809 3
770 771 4
770 810 5
771 772 4
771 811 5
772 773 5
772 812 3
773 774 5
773 813 4
774 775 3
774 814 5
775 776 2
775 815 5
776 777 3
776 816 2
777 778 1
777 817 4
778 779 3
778 818 1
779 780 2
779 819 5
780 781 3
780 820 5
781 782 2
781 821 2
782 783 1
782 822 1
783 784 3
783 823 5
784 785 2
784 824 3
785 786 2
785 825 4
786 787 5
786 826 3
787 788 4
787 827 3
788 789 3
788 828 4
789 790 1
789 829 2
790 791 3
790 830 1
791 792 2
791 831 4
792 793 4
792 832 1
793 794 5
793 833 1
794 795 3
794 834 5
795 796 1
795 835 2
796 797 5
796 836 3
797 798 3
797 837 3
798 799 2
798 838 4
799 800 5
799 839 5
800 840 1
801 802 4
801 841 3
802 803 4
802 842 5
803 804 3
803 843 1
804 805 3
804 844 4
805 806 4
805 845 4
806 807 4
806 846 3
807 808 1
807 847 5
808 809 4
808 848 5
809 810 2
809 849 2
810 811 3
810 850 4
811 812 3
811 851 5
812 813 2
812 852 2
813 814 5
813 853 2
814 815 3
814 854 3
815 816 2
815 855 3
816 817 4
816 856 1
817 818 2
817 857 3
818 819 3
818 858 1
819 820 3
819 859 3
820 821 1
820 860 3
821 822 3
821 861 1
822 823 5
822 862 5
823 824 5
823 863 4
824 825 3
824 864 2
825 826 4
825 865 3
826 827 5
826 866 2
827 828 5
827 867 3
828 829 3
828 868 4
829 830 4
829 869 5
830 831 5
830 870 1
831 832 4
831 871 5
832 833 2
832 872 5
833 834 5
833 873 5
834 835 4
834 874 3
835 836 5
835 875 1
836 837 5
836 876 4
837 838 5
837 877 1
838 839 1
838 878 3
839 840 3
839 879 1
840 880 2
841 842 3
841 881 1
842 843 2
842 882 5
843 844 2
843 883 1
844 845 2
844 884 2
845 846 5
845 885 3
846 847 3
846 886 5
847 848 2
847 887 3
848 849 5
848 888 3
849 850 5
849 889 3
850 851 4
850 890 1
851 852 1
851 891 4
852 853 1
852 892 4
853 854 2
853 893 5
854 855 4
854 894 5
855 856 2
855 895 1
856 857 3
856 896 4
857 858 3
857 897 2
858 859 4
858 898 3
859 860 3
859 899 1
860 861 1
860 900 2
861 862 2
861 901 5
862 863 3
862 902 2
863 864 4
863 903 4
864 865 4
864 904 5
865 866 1
865 905 5
866 867 1
866 906 3
867 868 2
867 907 1
868 869 3
868 908 1
869 870 4
869 909 1
870 871 5
870 910 4
871 872 3
871 911 5
872 873 4
872 912 1
873 874 2
873 913 3
874 875 4
874 914 5
875 876 5
875 915 4
876 877 5
876 916 2
877 878 5
877 917 1
878 879 3
878 918 2
879 880 3
879 919 5
880 920 3
881 882 4
881 921 4
882 883 4
882 922 3
883 884 1
883 923 5
884 885 2
884 924 4
885 886 3
885 925 4
886 887 3
886 926 3
887 888 4
887 927 2
888 889 2
888 928 2
889 890 3
889 929 1
890 891 4
890 930 3
891 892 5
891 931 5
892 893 3
892 932 2
893 894 1
893 933 2
894 895 3
894 934 2
895 896 2
895 935 2
896 897 4
896 936 5
897 898 1
897 937 1
898 899 5
898 938 3
899 900 4
899 939 1
900 901 4
900 940 5
901 902 5
901 941 4
902 903 5
902 942 3
903 904 2
903 943 4
904 905 5
904 944 4
905 906 2
905 945 4
906 907 2
906 946 4
907 908 5
907 947 4
908 909 3
908 948 2
909 910 3
909 949 4
910 911 3
910 950 3
911 912 2
911 951 3
912 913 1
912 952 4
913 914 4
913 953 2
914 915 3
914 954 2
915 916 2
915 955 4
916 917 2
916 956 2
917 918 5
917 957 5
918 919 1
918 958 4
919 920 2
919 959 5
920 960 3
921 922 4
921 961 1
922 923 2
922 962 5
923 924 1
923 963 1
924 925 2
924 964 3
925 926 1
925 965 1
926 927 3
926 966 1
927 928 1
927 967 1
928 929 4
928 968 3
929 930 1
929 969 5
930 931 1
930 970 4
931 932 3
931 971 3
932 933 5
932 972 2
933 934 1
933 973 1
934 935 4
934 974 4
935 936 5
935 975 3
936 937 2
936 976 4
937 938 1
937 977 1
938 939 2
938 978 4
939 940 4
939 979 3
940 941 3
940 980 2
941 942 5
941 981 5
942 943 1
942 982 3
943 944 1
943 983 5
944 945 5
944 984 3
945 946 1
945 985 5
946 947 2
946 986 3
947 948 3
947 987 4
948 949 3
948 988 5
949 950 1
949 989 5
950 951 1
950 990 1
951 952 3
951 991 1
952 953 3
952 992 2
953 954 4
953 993 2
954 955 2
954 994 3
955 956 2
955 995 4
956 957 1
956 996 3
957 958 2
957 997 2
958 959 4
958 998 5
959 960 3
959 999 2
960 1000 3
961 962 2
961 1001 2
962 963 3
962 1002 3
963 964 3
963 1003 2
964 965 5
964 1004 1
965 966 2
965 1005 1
966 967 5
966 1006 3
967 968 1
967 1007 2
968 969 3
968 1008 5
969 970 5
969 1009 5
970 971 3
970 1010 4
971 972 1
971 1011 3
972 973 5
972 1012 4
973 974 1
973 1013 3
974 975 3
974 1014 1
975 976 2
975 1015 4
976 977 1
976 1016 1
977 978 1
977 1017 5
978 979 1
978 1018 4
979 980 5
979 1019 4
980 981 4
980 1020 1
981 982 3
981 1021 1
982 983 4
982 1022 2
983 984 1
983 1023 3
984 985 3
984 1024 2
985 986 2
985 1025 4
986 987 1
986 1026 1
987 988 4
987 1027 1
988 989 1
988 1028 5
989 990 4
989 1029 4
990 991 4
990 1030 4
991 992 1
991 1031 4
992 993 5
992 1032 1
993 994 4
993 1033 2
994 995 1
994 1034 2
995 996 1
995 1035 2
996 997 4
996 1036 2
997 998 3
997 1037 2
998 999 2
998 1038 3
999 1000 1
999 1039 5
1000 1040 4
1001 1002 4
1001 1041 1
1002 1003 2
1002 1042 2
1003 1004 2
1003 1043 3
1004 1005 1
1004 1044 5
1005 1006 5
1005 1045 2
1006 1007 5
1006 1046 5
1007 1008 4
1007 1047 4
1008 1009 5
1008 1048 3
1009 1010 1
1009 1049 5
1010 1011 4
1010 1050 4
1011 1012 5
1011 1051 2
1012 1013 2
1012 1052 1
1013 1014 1
1013 1053 1
1014 1015 4
1014 1054 3
1015 1016 2
1015 1055 1
1016 1017 3
1016 1056 3
1017 1018 4
1017 1057 2
1018 1019 5
1018 1058 4
1019 1020 5
1019 1059 2
1020 1021 3
1020 1060 2
1021 1022 5
1021 1061 5
1022 1023 5
1022 1062 3
1023 1024 4
1023 1063 1
1024 1025 1
1024 1064 4
1025 1026 3
1025 1065 3
1026 1027 1
1026 1066 5
1027 1028 3
1027 1067 5
1028 1029 4
1028 1068 2
1029 1030 4
1029 1069 5
1030 1031 1
1030 1070 1
1031 1032 2
1031 1071 1
1032 1033 3
1032 1072 1
1033 1034 3
1033 1073 5
1034 1035 4
1034 1074 3
1035 1036 3
1035 1075 3
1036 1037 3
1036 1076 3
1037 1038 1
1037 1077 5
1038 1039 2
1038 1078 4
1039 1040 1
1039 1079 3
1040 1080 3
1041 1042 5
1041 1081 1
1042 1043 3
1042 1082 1
1043 1044 2
1043 1083 4
1044 1045 4
1044 1084 3
1045 1046 5
1045 1085 1
1046 1047 1
1046 1086 2
1047 1048 5
1047 1087 2
1048 1049 3
1048 1088 5
1049 1050 4
1049 1089 3
1050 1051 2
1050 1090 2
1051 1052 4
1051 1091 4
1052 1053 4
1052 1092 2
1053 1054 5
1053 1093 5
1054 1055 2
1054 1094 5
1055 1056 2
1055 1095 5
1056 1057 4
1056 1096 5
1057 1058 1
1057 1097 1
1058 1059 2
1058 1098 4
1059 1060 5
1059 1099 3
1060 1061 1
1060 1100 1
1061 1062 2
1061 1101 3
1062 1063 1
1062 1102 2
1063 1064 3
1063 1103 2
1064 1065 4
1064 1104 3
1065 1066 5
1065 1105 2
1066 1067 4
1066 1106 3
1067 1068 2
1067 1107 5
1068 1069 2
1068 1108 5
1069 1070 4
1069 1109 5
1070 1071 4
1070 1110 2
1071 1072 3
1071 1111 5
1072 1073 3
1072 1112 3
1073 1074 2
1073 1113 3
1074 1075 4
1074 1114 5
1075 1076 1
1075 1115 1
1076 1077 5
1076 1116 3
1077 1078 5
1077 1117 5
1078 1079 2
1078 1118 2
1079 1080 3
1079 1119 1
1080 1120 4
1081 1082 3
1081 1121 3
1082 1083 3
1082 1122 4
1083 1084 3
1083 1123 1
1084 1085 5
1084 1124 1
1085 1086 3
1085 1125 5
1086 1087 1
1086 1126 2
1087 1088 3
1087 1127 2
1088 1089 1
1088 1128 2
1089 1090 1
1089 1129 1
1090 1091 2
1090 1130 3
1091 1092 5
1091 1131 1
1092 1093 1
1092 1132 3
1093 1094 4
1093 1133 4
1094 1095 5
1094 1134 1
1095 1096 4
1095 1135 4
1096 1097 5
1096 1136 2
1097 1098 1
1097 1137 4
1098 1099 3
1098 1138 5
1099 1100 5
1099 1139 4
1100 1101 2
1100 1140 5
1101 1102 4
1101 1141 4
1102 1103 5
1102 1142 3
1103 1104 2
1103 1143 5
1104 1105 2
1104 1144 4
1105 1106 1
1105 1145 5
1106 1107 3
1106 1146 2
1107 1108 3
1107 1147 2
1108 1109 5
1108 1148 4
1109 1110 1
1109 1149 1
1110 1111 2
1110 1150 4
1111 1112 3
1111 1151 3
1112 1113 4
1112 1152 2
1113 1114 2
1113 1153 1
1114 1115 3
1114 1154 3
1115 1116 3
1115 1155 5
1116 1117 4
1116 1156 3
1117 1118 5
1117 1157 4
1118 1119 3
1118 1158 5
1119 1120 3
1119 1159 2
1120 1160 1
1121 1122 5
1121 1161 1
1122 1123 1
1122 1162 5
1123 1124 1
1123 1163 4
1124 1125 5
1124 1164 1
1125 1126 4
1125 1165 4
1126 1127 1
1126 1166 1
1127 1128 5
1127 1167 4
1128 1129 4
1128 1168 3
1129 1130 2
1129 1169 4
1130 1131 4
1130 1170 2
1131 1132 2
1131 1171 1
1132 1133 4
1132 1172 2
1133 1134 4
1133 1173 2
1134 1135 1
1134 1174 3
1135 1136 3
1135 1175 4
1136 1137 4
1136 1176 1
1137 1138 3
1137 1177 2
1138 1139 4
1138 1178 5
1139 1140 3
1139 1179 5
1140 1141 5
1140 1180 2
1141 1142 2
1141 1181 3
1142 1143 5
1142 1182 5
1143 1144 3
1143 1183 4
1144 1145 5
1144 1184 2
1145 1146 2
1145 1185 2
1146 1147 3
1146 1186 3
1147 1148 3
1147 1187 3
1148 1149 4
1148 1188 5
1149 1150 2
1149 1189 4
1150 1151 1
1150 1190 3
1151 1152 5
1151 1191 4
1152 1153 1
1152 1192 5
1153 1154 2
1153 1193 3
1154 1155 3
1154 1194 5
1155 1156 5
1155 1195 1
1156 1157 5
1156 1196 2
1157 1158 1
1157 1197 5
1158 1159 3
1158 1198 1
1159 1160 1
1159 1199 4
1160 1200 3
1161 1162 5
1161 1201 4
1162 1163 2
1162 1202 3
1163 1164 5
1163 1203 1
1164 1165 4
1164 1204 4
1165 1166 2
1165 1205 3
1166 1167 3
1166 1206 5
1167 1168 4
1167 1207 4
1168 1169 3
1168 1208 2
1169 1170 1
1169 1209 1
1170 1171 2
1170 1210 1
1171 1172 4
1171 1211 5
1172 1173 4
1172 1212 3
1173 1174 4
1173 1213 2
1174 1175 4
1174 1214 2
1175 1176 1
1175 1215 2
1176 1177 4
1176 1216 5
1177 1178 5
1177 1217 4
1178 1179 5
1178 1218 4
1179 1180 1
1179 1219 5
1180 1181 5
1180 1220 4
1181 1182 4
1181 1221 2
1182 1183 5
1182 1222 5
1183 1184 1
1183 1223 3
1184 1185 2
1184 1224 4
1185 1186 1
1185 1225 4
1186 1187 1
1186 1226 5
1187 1188 3
1187 1227 1
1188 1189 2
1188 1228 3
1189 1190 4
1189 1229 5
1190 1191 3
1190 1230 3
1191 1192 5
1191 1231 4
1192 1193 2
1192 1232 5
1193 1194 2
1193 1233 3
1194 1195 2
1194 1234 1
1195 1196 5
1195 1235 5
1196 1197 5
1196 1236 5
1197 1198 2
1197 1237 1
1198 1199 3
1198 1238 2
1199 1200 2
1199 1239 5
1200 1240 2
1201 1202 1
1201 1241 2
1202 1203 3
1202 1242 2
1203 1204 2
1203 1243 5
1204 1205 2
1204 1244 5
1205 1206 2
1205 1245 2
1206 1207 3
1206 1246 5
1207 1208 3
1207 1247 3
1208 1209 1
1208 1248 1
1209 1210 3
1209 1249 2
1210 1211 3
1210 1250 4
1211 1212 3
1211 1251 1
1212 1213 3
1212 1252 3
1213 1214 2
1213 1253 1
1214 1215 2
1214 1254 1
1215 1216 5
1215 1255 3
1216 1217 2
1216 1256 3
1217 1218 3
1217 1257 4
1218 1219 2
1218 1258 1
1219 1220 5
1219 1259 2
1220 1221 4
1220 1260 5
1221 1222 2
1221 1261 1
1222 1223 5
1222 1262 2
1223 1224 2
1223 1263 4
1224 1225 4
1224 1264 1
1225 1226 1
1225 1265 1
1226 1227 3
1226 1266 5
1227 1228 5
1227 1267 4
1228 1229 2
1228 1268 3
1229 1230 5
1229 1269 4
1230 1231 5
1230 1270 4
1231 1232 4
1231 1271 2
1232 1233 5
1232 1272 4
1233 1234 4
1233 1273 1
1234 1235 1
1234 1274 3
1235 1236 4
1235 1275 4
1236 1237 2
1236 1276 4
1237 1238 2
1237 1277 3
1238 1239 5
1238 1278 3
1239 1240 3
1239 1279 2
1240 1280 4
1241 1242 1
1241 1281 2
1242 1243 4
1242 1282 1
1243 1244 5
1243 1283 2
1244 1245 4
1244 1284 2
1245 1246 3
1245 1285 5
1246 1247 3
1246 1286 2
1247 1248 3
1247 1287 5
1248 1249 5
1248 1288 2
1249 1250 3
1249 1289 4
1250 1251 4
1250 1290 3
1251 1252 1
1251 1291 2
1252 1253 1
1252 1292 5
1253 1254 5
1253 1293 3
1254 1255 1
1254 1294 5
1255 1256 3
1255 1295 4
1256 1257 2
1256 1296 3
1257 1258 5
1257 1297 2
1258 1259 3
1258 1298 3
1259 1260 4
1259 1299 2
1260 1261 2
1260 1300 1
1261 1262 3
1261 1301 5
1262 1263 1
1262 1302 3
1263 1264 5
1263 1303 2
1264 1265 3
1264 1304 2
1265 1266 5
1265 1305 4
1266 1267 2
1266 1306 5
1267 1268 1
1267 1307 2
1268 1269 4
1268 1308 4
1269 1270 1
1269 1309 2
1270 1271 2
1270 1310 4
1271 1272 3
1271 1311 5
1272 1273 1
1272 1312 1
1273 1274 3
1273 1313 5
1274 1275 5
1274 1314 2
1275 1276 3
1275 1315 2
1276 1277 5
1276 1316 1
1277 1278 3
1277 1317 2
1278 1279 2
1278 1318 1
1279 1280 3
1279 1319 2
1280 1320 2
1281 1282 1
1281 1321 2
1282 1283 5
1282 1322 2
1283 1284 3
1283 1323 5
1284 1285 3
1284 1324 1
1285 1286 1
1285 1325 4
1286 1287 5
1286 1326 4
1287 1288 3
1287 1327 4
1288 1289 1
1288 1328 2
1289 1290 4
1289 1329 3
1290 1291 1
1290 1330 1
1291 1292 1
1291 1331 3
1292 1293 4
1292 1332 3
1293 1294 2
1293 1333 1
1294 1295 1
1294 1334 5
1295 1296 5
1295 1335 1
1296 1297 4
1296 1336 3
1297 1298 3
1297 1337 2
1298 1299 5
1298 1338 3
1299 1300 3
1299 1339 5
1300 1301 3
1300 1340 1
1301 1302 2
1301 1341 1
1302 1303 3
1302 1342 4
1303 1304 1
1303 1343 3
1304 1305 5
1304 1344 1
1305 1306 2
1305 1345 2
1306 1307 1
1306 1346 2
1307 1308 2
1307 1347 2
1308 1309 5
1308 1348 4
1309 1310 3
1309 1349 1
1310 1311 2
1310 1350 3
1311 1312 2
1311 1351 3
1312 1313 4
1312 1352 2
1313 1314 3
1313 1353 1
1314 1315 1
1314 1354 5
1315 1316 2
1315 1355 2
1316 1317 2
1316 1356 4
1317 1318 2
1317 1357 1
1318 1319 1
1318 1358 1
1319 1320 5
1319 1359 5
1320 1360 3
1321 1322 2
1321 1361 1
1322 1323 3
1322 1362 2
1323 1324 2
1323 1363 3
1324 1325 3
1324 1364 4
1325 1326 5
1325 1365 3
1326 1327 1
1326 1366 4
1327 1328 5
1327 1367 3
1328 1329 3
1328 1368 3
1329 1330 2
1329 1369 4
1330 1331 5
1330 1370 2
1331 1332 5
1331 1371 5
1332 1333 3
1332 1372 1
1333 1334 4
1333 1373 5
1334 1335 5
1334 1374 5
1335 1336 5
1335 1375 3
1336 1337 5
1336 1376 2
1337 1338 1
1337 1377 4
1338 1339 3
1338 1378 4
1339 1340 3
1339 1379 1
1340 1341 1
1340 1380 5
1341 1342 5
1341 1381 5
1342 1343 4
1342 1382 5
1343 1344 5
1343 1383 2
1344 1345 2
1344 1384 5
1345 1346 3
1345 1385 4
1346 1347 3
1346 1386 3
1347 1348 4
1347 1387 1
1348 1349 5
1348 1388 3
1349 1350 3
1349 1389 4
1350 1351 4
1350 1390 1
1351 1352 3
1351 1391 1
1352 1353 3
1352 1392 1
1353 1354 3
1353 1393 4
1354 1355 2
1354 1394 1
1355 1356 5
1355 1395 5
1356 1357 5
1356 1396 4
1357 1358 3
1357 1397 2
1358 1359 5
1358 1398 2
1359 1360 1
1359 1399 4
1360 1400 3
1361 1362 3
1361 1401 3
1362 1363 2
1362 1402 2
1363 1364 5
1363 1403 3
1364 1365 2
1364 1404 5
1365 1366 4
1365 1405 2
1366 1367 3
1366 1406 1
1367 1368 4
1367 1407 4
1368 1369 3
1368 1408 4
1369 1370 1
1369 1409 3
1370 1371 2
1370 1410 2
1371 1372 3
1371 1411 3
1372 1373 4
1372 1412 2
1373 1374 1
1373 1413 4
1374 1375 3
1374 1414 3
1375 1376 4
1375 1415 1
1376 1377 5
1376 1416 1
1377 1378 1
1377 1417 2
1378 1379 3
1378 1418 1
1379 1380 2
1379 1419 5
1380 1381 4
1380 1420 2
1381 1382 2
1381 1421 4
1382 1383 5
1382 1422 5
1383 1384 1
1383 1423 4
1384 1385 5
1384 1424 5
1385 1386 2
1385 1425 5
1386 1387 3
1386 1426 2
1387 1388 2
1387 1427 5
1388 1389 3
1388 1428 2
1389 1390 1
1389 1429 2
1390 1391 3
1390 1430 2
1391 1392 5
1391 1431 2
1392 1393 4
1392 1432 3
1393 1394 2
1393 1433 1
1394 1395 3
1394 1434 1
1395 1396 2
1395 1435 3
1396 1397 4
1396 1436 2
1397 1398 2
1397 1437 2
1398 1399 1
1398 1438 3
1399 1400 3
1399 1439 1
1400 1440 4
1401 1402 4
1401 1441 5
1402 1403 1
1402 1442 5
1403 1404 3
1403 1443 2
1404 1405 4
1404 1444 4
1405 1406 2
1405 1445 5
1406 1407 1
1406 1446 5
1407 1408 5
1407 1447 3
1408 1409 3
1408 1448 3
1409 1410 1
1409 1449 1
1410 1411 2
1410 1450 4
1411 1412 3
1411 1451 2
1412 1413 5
1412 1452 2
1413 1414 2
1413 1453 5
1414 1415 5
1414 1454 4
1415 1416 5
1415 1455 5
1416 1417 5
1416 1456 3
1417 1418 1
1417 1457 1
1418 1419 3
1418 1458 3
1419 1420 1
1419 1459 5
1420 1421 3
1420 1460 3
1421 1422 4
1421 1461 4
1422 1423 5
1422 1462 2
1423 1424 2
1423 1463 5
1424 1425 2
1424 1464 5
1425 1426 1
1425 1465 5
1426 1427 2
1426 1466 2
1427 1428 1
1427 1467 1
1428 1429 1
1428 1468 3
1429 1430 5
1429 1469 2
1430 1431 2
1430 1470 3
1431 1432 4
1431 1471 2
1432 1433 4
1432 1472 3
1433 1434 5
1433 1473 3
1434 1435 3
1434 1474 5
1435 1436 1
1435 1475 3
1436 1437 5
1436 1476 2
1437 1438 4
1437 1477 1
1438 1439 2
1438 1478 3
1439 1440 4
1439 1479 2
1440 1480 4
1441 1442 2
1441 1481 1
1442 1443 1
1442 1482 1
1443 1444 2
1443 1483 5
1444 1445 1
1444 1484 2
1445 1446 5
1445 1485 4
1446 1447 5
1446 1486 4
1447 1448 4
1447 1487 1
1448 1449 4
1448 1488 4
1449 1450 4
1449 1489 4
1450 1451 5
1450 1490 2
1451 1452 3
1451 1491 2
1452 1453 5
1452 1492 5
1453 1454 5
1453 1493 5
1454 1455 3
1454 1494 5
1455 1456 3
1455 1495 3
1456 1457 2
1456 1496 3
1457 1458 5
1457 1497 3
1458 1459 1
1458 1498 2
1459 1460 5
1459 1499 2
1460 1461 2
1460 1500 4
1461 1462 4
1461 1501 5
1462 1463 3
1462 1502 5
1463 1464 2
1463 1503 3
1464 1465 5
1464 1504 4
1465 1466 5
1465 1505 3
1466 1467 4
1466 1506 1
1467 1468 2
1467 1507 4
1468 1469 3
1468 1508 4
1469 1470 1
1469 1509 5
1470 1471 5
1470 1510 2
1471 1472 5
1471 1511 2
1472 1473 2
1472 1512 3
1473 1474 4
1473 1513 5
1474 1475 1
1474 1514 3
1475 1476 5
1475 1515 4
1476 1477 1
1476 1516 4
1477 1478 3
1477 1517 2
1478 1479 2
1478 1518 1
1479 1480 3
1479 1519 1
1480 1520 3
1481 1482 1
1481 1521 5
1482 1483 5
1482 1522 2
1483 1484 2
1483 1523 5
1484 1485 5
1484 1524 2
1485 1486 3
1485 1525 4
1486 1487 5
1486 1526 1
1487 1488 3
1487 1527 2
1488 1489 5
1488 1528 5
1489 1490 1
1489 1529 5
1490 1491 2
1490 1530 3
1491 1492 3
1491 1531 4
1492 1493 3
1492 1532 5
1493 1494 2
1493 1533 2
1494 1495 3
1494 1534 2
1495 1496 4
1495 1535 5
1496 1497 1
1496 1536 3
1497 1498 1
1497 1537 4
1498 1499 3
1498 1538 5
1499 1500 5
1499 1539 1
1500 1501 5
1500 1540 3
1501 1502 1
1501 1541 1
1502 1503 2
1502 1542 5
1503 1504 5
1503 1543 4
1504 1505 2
1504 1544 5
1505 1506 4
1505 1545 2
1506 1507 2
1506 1546 5
1507 1508 2
1507 1547 3
1508 1509 3
1508 1548 1
1509 1510 2
1509 1549 5
1510 1511 5
1510 1550 3
1511 1512 2
1511 1551 4
1512 1513 1
1512 1552 5
1513 1514 5
1513 1553 1
1514 1515 5
1514 1554 3
1515 1516 3
1515 1555 2
1516 1517 3
1516 1556 5
1517 1518 1
1517 1557 5
1518 1519 4
1518 1558 3
1519 1520 3
1519 1559 3
1520 1560 5
1521 1522 1
1521 1561 3
1522 1523 1
1522 1562 1
1523 1524 2
1523 1563 5
1524 1525 5
1524 1564 5
1525 1526 3
1525 1565 2
1526 1527 5
1526 1566 2
1527 1528 1
1527 1567 2
1528 1529 2
1528 1568 5
1529 1530 1
1529 1569 2
1530 1531 5
1530 1570 4
1531 1532 3
1531 1571 2
1532 1533 1
1532 1572 3
1533 1534 1
1533 1573 3
1534 1535 2
1534 1574 2
1535 1536 3
1535 1575 4
1536 1537 3
1536 1576 1
1537 1538 3
1537 1577 1
1538 1539 3
1538 1578 1
1539 1540 5
1539 1579 5
1540 1541 4
1540 1580 5
1541 1542 5
1541 1581 3
1542 1543 4
1542 1582 2
1543 1544 3
1543 1583 5
1544 1545 4
1544 1584 4
1545 1546 4
1545 1585 1
1546 1547 3
1546 1586 2
1547 1548 5
1547 1587 1
1548 1549 5
1548 1588 4
1549 1550 4
1549 1589 2
1550 1551 1
1550 1590 2
1551 1552 3
1551 1591 1
1552 1553 1
1552 1592 3
1553 1554 4
1553 1593 2
1554 1555 5
1554 1594 4
1555 1556 1
1555 1595 4
1556 1557 4
1556 1596 3
1557 1558 2
1557 1597 3
1558 1559 1
1558 1598 2
1559 1560 1
1559 1599 2
1560 1600 5
1561 1562 5
1562 1563 3
1563 1564 5
1564 1565 4
1565 1566 5
1566 1567 4
1567 1568 3
1568 1569 1
1569 1570 5
1570 1571 5
1571 1572 4
1572 1573 4
1573 1574 4
1574 1575 3
1575 1576 3
1576 1577 2
1577 1578 3
1578 1579 3
1579 1580 4
1580 1581 1
1581 1582 3
1582 1583 5
1583 1584 2
1584 1585 1
1585 1586 3
1586 1587 3
1587 1588 2
1588 1589 2
1589 1590 2
1590 1591 4
1591 1592 2
1592 1593 5
1593 1594 3
1594 1595 3
1595 1596 4
1596 1597 5
1597 1598 5
1598 1599 3
1599 1600 1
